(set-logic QF_S)
(declare-fun var0 () String)
(declare-fun var1 () Int)
(declare-fun var2 () Bool)
(declare-fun var3 () String)
(declare-fun var4 () Int)
(declare-fun var5 () Bool)
(declare-fun var6 () String)
(declare-fun var7 () Int)
(declare-fun var8 () Bool)
(assert (< (str.indexof (str.at "$$8X>{=0-0" var4) (str.replace var6 var6 var3) (str.indexof var3 var3 var4)) (str.len var6)))
(assert (< var7 var1))
(assert (not var8))
(assert (>= (str.indexof var0 "=FB<_rX{vw" var4) (str.indexof var6 var0 var4)))
(check-sat)